100
32
2
1
2
2
3
2
1
4
3
19
2
2
9
17
1
11
10
17
9
19
12
17
13
11
9
24
15
10
9
9
18
1
3
4
3
18
2
20
3
2
4
2
2
2
1
3
2
2
23
1
1
5
19
1
17
1
3
1
3
1
3
1
3
5
20
1
1
1
3
1
1
1
1
2
3
1
2
6
16
2
2
6
5
2
1
17
2
2
5
6
18
1
1
3
2
3
2
1
1
2